
Gurobi 8.1.1 (win64) logging started 11/25/19 18:50:35

Changed value of parameter LogFile to logs/full/qp/full-06-30-2.log
   Prev: gurobi.log  Default: 
Changed value of parameter LogToConsole to 0
   Prev: 1  Min: 0  Max: 1  Default: 1
Changed value of parameter TimeLimit to 3600.0
   Prev: 1e+100  Min: 0.0  Max: 1e+100  Default: 1e+100
Optimize a model with 1 rows, 546 columns and 1 nonzeros
Model has 14 quadratic constraints
Variable types: 0 continuous, 546 integer (546 binary)
Coefficient statistics:
  Matrix range     [1e+00, 1e+00]
  QMatrix range    [1e+00, 1e+00]
  Objective range  [1e+00, 1e+00]
  Bounds range     [1e+00, 1e+00]
  RHS range        [1e+00, 1e+00]
  QRHS range       [1e+00, 2e+00]
Found heuristic solution: objective 546.0000000
Presolve removed 1 rows and 1 columns
Presolve time: 0.01s
Presolved: 0 rows, 545 columns, 0 nonzeros
Variable types: 0 continuous, 545 integer (545 binary)

Root relaxation: objective 1.000000e+00, 0 iterations, 0.00 seconds

    Nodes    |    Current Node    |     Objective Bounds      |     Work
 Expl Unexpl |  Obj  Depth IntInf | Incumbent    BestBd   Gap | It/Node Time

     0     0    2.50000    0    1  546.00000    2.50000   100%     -    0s
H    0     0                      15.0000000    2.50000  83.3%     -    0s
     0     0    2.50000    0    1   15.00000    2.50000  83.3%     -    0s
H    0     0                      14.0000000    2.50000  82.1%     -    0s
     0     2    2.50000    0    1   14.00000    2.50000  82.1%     -    0s
H   53    41                       9.0000000    2.50000  72.2%   1.5    0s
H  149   134                       8.0000000    2.50000  68.8%   1.2    0s
H  722   710                       6.0000000    2.50000  58.3%   1.0    2s
   900   849    3.33333  389    1    6.00000    2.50000  58.3%   1.1   23s
   902   850    3.33333   86 7051    6.00000    3.03905  49.3%   1.1   65s
   904   853    3.33333   36    1    6.00000    3.03905  49.3%  77.4   73s
   906   854    3.33333  137 6842    6.00000    3.03913  49.3%  77.2  104s
   907   855    3.55272  354 2846    6.00000    3.55272  40.8%  77.1  129s
   908   856    3.55281  279 3558    6.00000    3.55281  40.8%  77.0  138s
   909   856    3.55282  313 3578    6.00000    3.55282  40.8%  76.9  141s
   910   857    3.65477   56 6668    6.00000    3.65477  39.1%  76.8  166s
   911   858    3.68382   69 4039    6.00000    3.68382  38.6%  76.8  173s
   912   858    3.68439  130 3885    6.00000    3.68439  38.6%  76.7  177s
   914   860    3.68786  330 4154    6.00000    3.68786  38.5%  76.5  185s
   916   861    3.68833  182 3455    6.00000    3.68833  38.5%  76.3  190s
   917   862    3.68837  135 4070    6.00000    3.68837  38.5%  76.3  197s
   919   863    3.68843  187 4745    6.00000    3.68843  38.5%  76.1  204s
   920   864    3.68846   62 4798    6.00000    3.68846  38.5%  76.0  208s
   921   864    3.68867  187 4736    6.00000    3.68867  38.5%  75.9  218s
   922   865    3.68870  128 4643    6.00000    3.68870  38.5%  75.8  221s
   923   866    3.68887  197 5041    6.00000    3.68887  38.5%  75.8  230s
   925   867    3.68908   20 3365    6.00000    3.68908  38.5%  75.6  237s
   927   868    3.68923  278 3752    6.00000    3.68923  38.5%  75.4  249s
   928   869    3.68923  283 3934    6.00000    3.68923  38.5%  75.4  251s
   929   870    3.68934  234 4051    6.00000    3.68934  38.5%  75.3  257s
   930   870    3.68935    5 4168    6.00000    3.68935  38.5%  75.2  260s
   931   871    3.68961  361 4474    6.00000    3.68961  38.5%  75.1  265s
   933   872    3.68982  294 4540    6.00000    3.68982  38.5%  75.0  272s
   935   874    3.69003  312 4358    6.00000    3.69003  38.5%  74.8  279s
   936   874    3.69005   45 4366    6.00000    3.69005  38.5%  74.7  280s
   937   875    3.69033   82 3655    6.00000    3.69033  38.5%  74.6  286s
   939   876    3.69049  111 3902    6.00000    3.69049  38.5%  74.5  294s
   940   877    3.69050  154 3849    6.00000    3.69050  38.5%  74.4  296s
   941   878    3.69060  235 4368    6.00000    3.69060  38.5%  74.3  301s
   943   879    3.69088  192 4637    6.00000    3.69088  38.5%  74.2  315s
   945   880    3.69105  101 3868    6.00000    3.69105  38.5%  74.0  322s
   946   881    3.69107  230 3914    6.00000    3.69107  38.5%  73.9  325s
   947   882    3.69125  268 4130    6.00000    3.69125  38.5%  73.8  333s
   948   882    3.69127   54 4303    6.00000    3.69127  38.5%  73.8  335s
   949   883    3.69151  149 4362    6.00000    3.69151  38.5%  73.7  342s
   951   884    3.69159  182 4318    6.00000    3.69159  38.5%  73.5  348s
   952   885    3.69161  114 4349    6.00000    3.69161  38.5%  73.5  350s
   953   886    3.69166  392 4495    6.00000    3.69166  38.5%  73.4  355s
   955   887    3.69172    4 4482    6.00000    3.69172  38.5%  73.2  361s
   957   888    3.69177   40 4509    6.00000    3.69177  38.5%  73.1  368s
   958   889    4.00000  379 4494    6.00000    3.69177  38.5%  73.0  370s
   959   890    4.00000  396 3953    6.00000    3.69183  38.5%  72.9  375s
   961   891    3.69190  138 4022    6.00000    3.69190  38.5%  72.8  382s
   963   892    3.69193   96 4105    6.00000    3.69193  38.5%  72.6  388s
   964   893    3.69193  141 4097    6.00000    3.69193  38.5%  72.5  390s
   965   894    3.69196   64 3821    6.00000    3.69196  38.5%  72.5  395s
   968   897    3.69196  117    1    6.00000    3.69196  38.5%   603  402s
   970   898    3.69196  119 6842    6.00000    3.69196  38.5%   602  433s
   971   899    3.69196   31 6801    6.00000    3.69196  38.5%   601  454s
   972   900    3.69196  233 6885    6.00000    3.69196  38.5%   601  464s
   973   900    3.69196  325 5481    6.00000    3.69196  38.5%   600  480s
   974   901    3.69627   58 4500    6.00000    3.69627  38.4%   600  487s
   975   902    3.69736  292 5217    6.00000    3.69736  38.4%   599  496s
   977   903    3.70364  339 4933    6.00000    3.70364  38.3%   598  507s
   979   904    3.70381  320 4704    6.00000    3.70381  38.3%   597  515s
   981   906    3.70381  131 4720    6.00000    3.70381  38.3%   595  523s
   982   906    3.70381   66 4735    6.00000    3.70381  38.3%   595  526s
   983   907    3.70423  369 4568    6.00000    3.70423  38.3%   594  536s
   984   908    4.00000  386 5118    6.00000    3.70490  38.3%   594  549s
   985   908    3.70527  146 4667    6.00000    3.70527  38.2%   593  558s
   986   909    3.70549  298 5078    6.00000    3.70549  38.2%   592  568s
   987   910    5.00000    5 5362    6.00000    3.70567  38.2%   592  577s
   988   910    4.00000  420 5336    6.00000    3.70602  38.2%   591  585s
   990   912    3.70687   37 4349    6.00000    3.70687  38.2%   590  600s
   992   913    3.70744  111 4908    6.00000    3.70744  38.2%   589  610s
   994   914    3.70777  195 5137    6.00000    3.70777  38.2%   588  618s
   996   916    3.70812    4 5706    6.00000    3.70812  38.2%   586  628s
   997   916    3.70834  375 4832    6.00000    3.70834  38.2%   586  634s
   998   917    3.70849  361 4902    6.00000    3.70849  38.2%   585  641s
   999   918    3.70862  109 4921    6.00000    3.70862  38.2%   585  649s
  1000   918    3.70862  389 4849    6.00000    3.70862  38.2%   584  650s
  1001   919    3.70874  361 5090    6.00000    3.70874  38.2%   583  656s
  1003   920    3.70888  213 4515    6.00000    3.70888  38.2%   582  663s
  1005   922    3.70893  207 5411    6.00000    3.70893  38.2%   581  669s
  1006   922    3.70893  137 5443    6.00000    3.70893  38.2%   581  671s
  1007   923    3.70900  354 5287    6.00000    3.70900  38.2%   580  680s
  1009   924    3.70914  313 4965    6.00000    3.70914  38.2%   579  690s
  1011   926    3.70924   69 4745    6.00000    3.70924  38.2%   578  698s
  1012   926    3.70925  130 4764    6.00000    3.70925  38.2%   577  700s
  1013   927    3.70943  173 4606    6.00000    3.70943  38.2%   577  706s
  1015   928    3.70953  295 4854    6.00000    3.70953  38.2%   575  713s
  1016   929    3.70954  182 4831    6.00000    3.70954  38.2%   575  715s
  1017   930    3.70960  135 4604    6.00000    3.70960  38.2%   574  720s
  1019   931    3.70965  187 5000    6.00000    3.70965  38.2%   573  727s
  1021   932    3.70969  187 5002    6.00000    3.70969  38.2%   572  739s
  1022   933    3.70969  128 4654    6.00000    3.70969  38.2%   571  741s
  1023   934    3.70974  197 4864    6.00000    3.70974  38.2%   571  748s
  1024   934    3.70974  314 4863    6.00000    3.70974  38.2%   570  753s
  1026   937    3.70974   70    1    6.00000    3.70974  38.2%  1045  757s
  1028   938    3.70974  283 6842    6.00000    3.70974  38.2%  1043  787s
  1029   939    3.70974  234 6718    6.00000    3.70974  38.2%  1042  805s
  1030   940    3.70974    5 5707    6.00000    3.70974  38.2%  1041  814s
  1031   940    3.70974  361 5565    6.00000    3.70974  38.2%  1040  825s
  1032   941    3.70974  100 4006    6.00000    3.70974  38.2%  1039  835s
  1033   942    3.70974  294 4154    6.00000    3.70974  38.2%  1038  849s
  1034   942    3.71083  282 4955    6.00000    3.71083  38.2%  1037  861s
  1035   943    3.71126  312 4929    6.00000    3.71126  38.1%  1036  874s
  1036   944    3.71126   45 4974    6.00000    3.71126  38.1%  1035  878s
  1037   944    3.71165   82 5529    6.00000    3.71165  38.1%  1034  889s
  1038   945    3.71169  245 5488    6.00000    3.71169  38.1%  1033  894s
  1039   946    3.71203  111 5290    6.00000    3.71203  38.1%  1032  903s
  1040   946    3.71208  154 5348    6.00000    3.71208  38.1%  1031  908s
  1041   947    3.71234  235 5164    6.00000    3.71234  38.1%  1030  918s
  1042   948    3.71241  296 5426    6.00000    3.71241  38.1%  1029  924s
  1043   948    3.71296  192 5102    6.00000    3.71296  38.1%  1028  934s
  1044   949    4.00000  396 5237    6.00000    3.71298  38.1%  1027  939s
  1045   950    3.71316  101 4903    6.00000    3.71316  38.1%  1026  953s
  1046   950    3.71318  230 4811    6.00000    3.71318  38.1%  1025  957s
  1047   951    3.71335  268 5334    6.00000    3.71335  38.1%  1024  966s
  1048   952    3.71336   54 5354    6.00000    3.71336  38.1%  1023  970s
  1049   952    3.71350  149 5322    6.00000    3.71350  38.1%  1022  980s
  1051   954    3.71368  182 5135    6.00000    3.71368  38.1%  1020  993s
  1052   954    3.71370  114 5138    6.00000    3.71370  38.1%  1019  998s
  1053   955    3.71378  392 5024    6.00000    3.71378  38.1%  1018 1005s
  1055   956    3.71389    4 5284    6.00000    3.71389  38.1%  1016 1018s
  1056   957    3.71390  238 5209    6.00000    3.71390  38.1%  1015 1022s
  1057   958    3.71405   40 5048    6.00000    3.71405  38.1%  1014 1037s
  1058   958    4.00000  379 4969    6.00000    3.71406  38.1%  1013 1040s
  1059   959    4.00000  396 5257    6.00000    3.71414  38.1%  1012 1047s
  1060   960    3.71415  145 5147    6.00000    3.71415  38.1%  1011 1050s
  1061   960    3.71423  138 5239    6.00000    3.71423  38.1%  1010 1058s
  1062   961    4.00000  391 5141    6.00000    3.71424  38.1%  1009 1061s
  1063   962    3.71429   96 5297    6.00000    3.71429  38.1%  1008 1068s
  1064   962    3.71429  141 5106    6.00000    3.71429  38.1%  1007 1070s
  1065   963    3.71432   64 5185    6.00000    3.71432  38.1%  1006 1077s
  1066   964    3.71432  378 5162    6.00000    3.71432  38.1%  1005 1082s
  1068   966    3.71432  117    1    6.00000    3.71432  38.1%  1320 1086s
  1070   967    3.71432  119 6842    6.00000    3.71432  38.1%  1317 1118s
  1071   968    3.71432   31 6554    6.00000    3.71432  38.1%  1316 1129s
  1072   969    3.71432  233 6421    6.00000    3.71432  38.1%  1315 1138s
  1073   969    3.71432  325 5206    6.00000    3.71432  38.1%  1314 1161s
  1074   970    3.71432   58 5024    6.00000    3.71432  38.1%  1312 1171s
  1075   971    3.71432  292 4847    6.00000    3.71432  38.1%  1311 1184s
  1076   971    3.72197  342 5261    6.00000    3.72197  38.0%  1310 1192s
  1077   972    3.72332  339 5120    6.00000    3.72332  37.9%  1309 1202s
  1078   973    4.00000    3 5111    6.00000    3.72336  37.9%  1307 1206s
  1079   973    3.72429  320 5333    6.00000    3.72429  37.9%  1306 1218s
  1080   974    3.72441   99 5570    6.00000    3.72441  37.9%  1305 1222s
  1081   975    3.72502  131 5059    6.00000    3.72502  37.9%  1304 1229s
  1082   975    3.72538   66 4856    6.00000    3.72538  37.9%  1303 1235s
  1083   976    3.72627  369 5207    6.00000    3.72627  37.9%  1301 1247s
  1084   977    4.00000  386 5343    6.00000    3.72701  37.9%  1300 1255s
  1086   978    3.72758  298 5503    6.00000    3.72758  37.9%  1298 1266s
  1087   979    5.00000    5 5488    6.00000    3.72763  37.9%  1297 1270s
  1088   979    4.00000  420 5309    6.00000    3.72805  37.9%  1295 1278s
  1089   980    3.72813  227 5315    6.00000    3.72813  37.9%  1294 1282s
  1090   981    3.72833   37 5275    6.00000    3.72833  37.9%  1293 1289s
  1091   981    3.72836  213 5452    6.00000    3.72836  37.9%  1292 1293s
  1092   982    3.72865  111 5359    6.00000    3.72865  37.9%  1291 1301s
  1093   983    3.72870  126 5383    6.00000    3.72870  37.9%  1289 1305s
  1094   983    3.72903  195 5530    6.00000    3.72903  37.8%  1288 1314s
  1095   984    3.72910  307 5328    6.00000    3.72910  37.8%  1287 1318s
  1096   985    3.72961    4 5245    6.00000    3.72961  37.8%  1286 1331s
  1097   985    3.72967  375 5294    6.00000    3.72967  37.8%  1285 1335s
  1098   986    3.72997  361 5424    6.00000    3.72997  37.8%  1284 1341s
  1100   987    3.73045  389 5207    6.00000    3.73045  37.8%  1281 1352s
  1102   989    3.73076   86 5289    6.00000    3.73076  37.8%  1279 1360s
  1104   990    3.73125   36 4855    6.00000    3.73125  37.8%  1277 1369s
  1105   991    3.73127  207 5049    6.00000    3.73127  37.8%  1275 1372s
  1106   991    3.73172  137 5324    6.00000    3.73172  37.8%  1274 1383s
  1107   992    3.73175  354 5351    6.00000    3.73175  37.8%  1273 1385s
  1108   993    3.73204  279 4902    6.00000    3.73204  37.8%  1272 1392s
  1109   993    3.73213  313 4839    6.00000    3.73213  37.8%  1271 1395s
  1110   994    3.73247   56 5267    6.00000    3.73247  37.8%  1270 1403s
  1111   995    3.73250   69 5383    6.00000    3.73250  37.8%  1269 1405s
  1112   995    3.73277  130 5235    6.00000    3.73277  37.8%  1267 1413s
  1113   996    3.73282  173 5039    6.00000    3.73282  37.8%  1266 1416s
  1114   997    3.73313  330 5458    6.00000    3.73313  37.8%  1265 1424s
  1115   997    3.73316  295 5129    6.00000    3.73316  37.8%  1264 1426s
  1116   998    3.73342  182 5391    6.00000    3.73342  37.8%  1263 1441s
  1118   999    3.73390  381 5113    6.00000    3.73390  37.8%  1261 1452s
  1120  1001    3.73415   62 5436    6.00000    3.73415  37.8%  1258 1461s
  1122  1002    3.73442  128 5297    6.00000    3.73442  37.8%  1256 1471s
  1124  1003    3.73459  314 4991    6.00000    3.73459  37.8%  1254 1480s
  1126  1005    3.73481   70 5309    6.00000    3.73481  37.8%  1252 1489s
  1127  1005    3.73484  278 5311    6.00000    3.73484  37.8%  1251 1492s
  1128  1006    3.73497  283 5318    6.00000    3.73497  37.8%  1249 1499s
  1129  1007    3.73498  234 5349    6.00000    3.73498  37.8%  1248 1501s
  1130  1007    3.73508    5 5488    6.00000    3.73508  37.7%  1247 1509s
  1131  1008    3.73509  361 5505    6.00000    3.73509  37.7%  1246 1511s
  1132  1009    3.73519  100 5394    6.00000    3.73519  37.7%  1245 1519s
  1133  1009    3.73522  294 5509    6.00000    3.73522  37.7%  1244 1522s
  1134  1010    3.73537  282 5429    6.00000    3.73537  37.7%  1243 1534s
  1135  1011    3.73537  312 5405    6.00000    3.73537  37.7%  1242 1535s
  1136  1011    3.73545   45 5467    6.00000    3.73545  37.7%  1241 1544s
  1137  1012    3.73546   82 5466    6.00000    3.73546  37.7%  1240 1547s
  1138  1013    3.73553  245 5276    6.00000    3.73553  37.7%  1238 1554s
  1139  1013    3.73554  111 5279    6.00000    3.73554  37.7%  1237 1556s
  1140  1014    3.73559  154 5316    6.00000    3.73559  37.7%  1236 1563s
  1141  1015    3.73559  235 5320    6.00000    3.73559  37.7%  1235 1566s
  1142  1015    3.73566  296 5391    6.00000    3.73566  37.7%  1234 1573s
  1143  1016    3.73566  192 5391    6.00000    3.73566  37.7%  1233 1578s
  1145  1019    3.73566  101    1    6.00000    3.73566  37.7%  1685 1583s
  1147  1020    3.73566  268 6842    6.00000    3.73566  37.7%  1682 1614s
  1148  1021    3.73566   54 6326    6.00000    3.73566  37.7%  1680 1630s
  1149  1022    3.73566  149 4463    6.00000    3.73566  37.7%  1679 1641s
  1150  1022    3.73566   51 5744    6.00000    3.73566  37.7%  1677 1652s
  1151  1023    3.73566  182 4974    6.00000    3.73566  37.7%  1676 1664s
  1152  1024    3.73566  114 4101    6.00000    3.73566  37.7%  1674 1679s
  1153  1024    3.73566  392 5143    6.00000    3.73566  37.7%  1673 1692s
  1154  1025    3.73566  209 5193    6.00000    3.73566  37.7%  1671 1707s
  1155  1026    3.73566    4 5089    6.00000    3.73566  37.7%  1670 1716s
  1156  1026    3.73581  238 5490    6.00000    3.73581  37.7%  1669 1733s
  1157  1027    3.73592   40 5333    6.00000    3.73592  37.7%  1667 1750s
  1158  1028    4.00000  379 5437    6.00000    3.73599  37.7%  1666 1759s
  1159  1028    4.00000  396 5420    6.00000    3.73599  37.7%  1664 1763s
  1160  1029    3.73606  145 5505    6.00000    3.73606  37.7%  1663 1773s
  1161  1030    3.73606  138 5453    6.00000    3.73606  37.7%  1661 1780s
  1163  1032    3.73606   96    1    6.00000    3.73606  37.7%  1852 1785s
  1165  1033    3.73606   64 6842    6.00000    3.73606  37.7%  1849 1815s
  1166  1034    3.73606  378 4165    6.00000    3.73606  37.7%  1847 1836s
  1167  1035    3.73606  145 5229    6.00000    3.73606  37.7%  1846 1847s
  1168  1035    3.73606  117 5808    6.00000    3.73606  37.7%  1844 1854s
  1169  1036    3.73606  323 5553    6.00000    3.73606  37.7%  1842 1865s
  1170  1037    3.73606  119 4259    6.00000    3.73606  37.7%  1841 1891s
  1171  1037    3.73731   31 4816    6.00000    3.73731  37.7%  1839 1901s
  1172  1038    3.73969  233 5058    6.00000    3.73969  37.7%  1838 1911s
  1173  1039    3.74026  325 5061    6.00000    3.74026  37.7%  1836 1918s
  1174  1039    3.74128   58 5292    6.00000    3.74128  37.6%  1835 1928s
  1175  1040    3.74131  292 5307    6.00000    3.74131  37.6%  1833 1932s
  1176  1041    3.74190  342 5268    6.00000    3.74190  37.6%  1831 1943s
  1177  1041    3.74202  339 5232    6.00000    3.74202  37.6%  1830 1948s
  1178  1042    4.00000    3 5056    6.00000    3.74242  37.6%  1828 1957s
  1179  1043    3.74249  320 5050    6.00000    3.74249  37.6%  1827 1961s
  1180  1043    3.74280   99 5302    6.00000    3.74280  37.6%  1825 1970s
  1181  1044    3.74288  131 5206    6.00000    3.74288  37.6%  1824 1975s
  1182  1045    3.74324   66 5225    6.00000    3.74324  37.6%  1822 1984s
  1183  1045    3.74328  369 5213    6.00000    3.74328  37.6%  1821 1988s
  1184  1046    4.00000  386 5152    6.00000    3.74355  37.6%  1819 1999s
  1185  1047    3.74358  146 5148    6.00000    3.74358  37.6%  1818 2003s
  1186  1047    3.74389  298 5148    6.00000    3.74389  37.6%  1816 2014s
  1187  1048    5.00000    5 5110    6.00000    3.74393  37.6%  1814 2018s
  1188  1049    4.00000  420 5274    6.00000    3.74412  37.6%  1813 2028s
  1189  1049    3.74416  227 5311    6.00000    3.74416  37.6%  1811 2033s
  1190  1050    3.74431   37 5412    6.00000    3.74431  37.6%  1810 2054s
  1191  1051    3.74432  213 5403    6.00000    3.74432  37.6%  1808 2058s
  1192  1051    3.74457  111 5251    6.00000    3.74457  37.6%  1807 2073s
  1193  1052    3.74467  126 5337    6.00000    3.74467  37.6%  1805 2083s
  1194  1053    3.74483  195 5104    6.00000    3.74483  37.6%  1804 2093s
  1195  1053    3.74492  307 5243    6.00000    3.74492  37.6%  1802 2102s
  1196  1054    3.74503    4 5093    6.00000    3.74503  37.6%  1801 2113s
  1197  1055    3.74525  375 5297    6.00000    3.74525  37.6%  1799 2124s
  1198  1055    3.74536  361 5238    6.00000    3.74536  37.6%  1798 2134s
  1199  1056    3.74549  109 5056    6.00000    3.74549  37.6%  1796 2142s
  1201  1057    3.74561  361 5126    6.00000    3.74561  37.6%  1793 2153s
  1202  1058    3.74564   86 5302    6.00000    3.74564  37.6%  1792 2157s
  1203  1059    3.74577  213 5430    6.00000    3.74577  37.6%  1790 2166s
  1205  1060    3.74593  207 5167    6.00000    3.74593  37.6%  1787 2178s
  1206  1061    3.74594  137 5204    6.00000    3.74594  37.6%  1786 2181s
  1207  1061    3.74605  354 5015    6.00000    3.74605  37.6%  1784 2190s
  1209  1063    3.74625  313 5383    6.00000    3.74625  37.6%  1781 2202s
  1210  1063    3.74631   56 5305    6.00000    3.74631  37.6%  1780 2206s
  1211  1064    3.74645   69 5168    6.00000    3.74645  37.6%  1778 2215s
  1213  1065    3.74657  173 5313    6.00000    3.74657  37.6%  1776 2238s
  1214  1066    3.74658  330 5295    6.00000    3.74658  37.6%  1774 2241s
  1215  1067    3.74671  295 5344    6.00000    3.74671  37.6%  1773 2251s
  1217  1068    3.74689  135 5054    6.00000    3.74689  37.6%  1770 2264s
  1218  1069    3.74697  381 5161    6.00000    3.74697  37.6%  1768 2268s
  1219  1069    3.74710  187 5210    6.00000    3.74710  37.5%  1767 2277s
  1221  1071    3.74722  187 5219    6.00000    3.74722  37.5%  1764 2290s
  1223  1072    3.74731  197 5268    6.00000    3.74731  37.5%  1761 2301s
  1224  1073    3.74732  314 5350    6.00000    3.74732  37.5%  1760 2305s
  1225  1073    3.74746   20 5249    6.00000    3.74746  37.5%  1758 2314s
  1226  1074    3.74746   70 5277    6.00000    3.74746  37.5%  1757 2316s
  1227  1075    3.74770  278 5321    6.00000    3.74770  37.5%  1755 2329s
  1228  1075    3.74777  283 5355    6.00000    3.74777  37.5%  1754 2333s
  1229  1076    3.74791  234 5328    6.00000    3.74791  37.5%  1752 2342s
  1230  1077    3.74794    5 5353    6.00000    3.74794  37.5%  1751 2346s
  1231  1077    3.74804  361 5294    6.00000    3.74804  37.5%  1750 2356s
  1233  1079    3.74816  294 5284    6.00000    3.74816  37.5%  1747 2369s
  1234  1079    3.74817  282 5300    6.00000    3.74817  37.5%  1745 2372s
  1235  1080    3.74827  312 5358    6.00000    3.74827  37.5%  1744 2380s
  1237  1081    3.74836   82 5396    6.00000    3.74836  37.5%  1741 2393s
  1238  1082    3.74836  245 5409    6.00000    3.74836  37.5%  1740 2395s
  1239  1083    3.74844  111 5270    6.00000    3.74844  37.5%  1738 2410s
  1241  1084    3.74852  235 5314    6.00000    3.74852  37.5%  1736 2422s
  1242  1085    3.74852  296 5274    6.00000    3.74852  37.5%  1734 2431s
  1244  1087    4.00000  396    1    6.00000    3.74852  37.5%  2235 2436s
  1246  1088    3.74852  230 6842    6.00000    3.74852  37.5%  2231 2467s
  1247  1089    3.74852  268 4137    6.00000    3.74852  37.5%  2229 2487s
  1248  1090    3.74852   54 4319    6.00000    3.74852  37.5%  2227 2497s
  1249  1090    3.74852  149 5614    6.00000    3.74852  37.5%  2226 2507s
  1250  1091    3.74852   51 5299    6.00000    3.74852  37.5%  2224 2515s
  1251  1092    3.74852  182 4524    6.00000    3.74852  37.5%  2222 2532s
  1252  1092    3.74852  114 5109    6.00000    3.74852  37.5%  2220 2542s
  1253  1093    3.74852  392 5133    6.00000    3.74852  37.5%  2219 2558s
  1254  1094    3.74852  209 5139    6.00000    3.74852  37.5%  2217 2567s
  1255  1094    3.74852    4 5170    6.00000    3.74852  37.5%  2215 2578s
  1256  1095    3.74852  238 5144    6.00000    3.74852  37.5%  2213 2585s
  1257  1096    3.74859   40 5468    6.00000    3.74859  37.5%  2211 2604s
  1258  1096    4.00000  379 5454    6.00000    3.74860  37.5%  2210 2610s
  1259  1097    4.00000  396 5460    6.00000    3.74867  37.5%  2208 2621s
  1260  1098    3.74868  145 5473    6.00000    3.74868  37.5%  2206 2627s
  1261  1098    3.74878  138 5334    6.00000    3.74878  37.5%  2204 2639s
  1262  1099    4.00000  391 5349    6.00000    3.74881  37.5%  2203 2646s
  1263  1100    3.74888   96 5451    6.00000    3.74888  37.5%  2201 2657s
  1264  1100    3.74889  141 5465    6.00000    3.74889  37.5%  2199 2663s
  1265  1101    3.74898   64 5399    6.00000    3.74898  37.5%  2197 2675s
  1266  1102    3.74898  378 5408    6.00000    3.74898  37.5%  2196 2680s
  1267  1102    3.74916  145 5397    6.00000    3.74916  37.5%  2194 2695s
  1268  1103    3.74916  117 5418    6.00000    3.74916  37.5%  2192 2700s
  1269  1104    3.74926  323 5274    6.00000    3.74926  37.5%  2191 2719s
  1270  1104    3.74927  119 5351    6.00000    3.74927  37.5%  2189 2725s
  1271  1105    3.74940   31 5309    6.00000    3.74940  37.5%  2187 2741s
  1272  1106    3.74940  233 5331    6.00000    3.74940  37.5%  2185 2746s
  1273  1106    3.74955  325 5377    6.00000    3.74955  37.5%  2184 2760s
  1274  1107    3.74956   58 5408    6.00000    3.74956  37.5%  2182 2766s
  1275  1108    3.74969  292 5072    6.00000    3.74969  37.5%  2180 2777s
  1276  1108    3.74972  342 5149    6.00000    3.74972  37.5%  2179 2780s
  1277  1109    3.74980  339 5186    6.00000    3.74980  37.5%  2177 2795s
  1279  1110    3.74994  320 5367    6.00000    3.74994  37.5%  2173 2810s
  1280  1111    3.75003   99 5409    6.00000    3.75003  37.5%  2172 2816s
  1281  1112    3.75017  131 5191    6.00000    3.75017  37.5%  2170 2829s
  1282  1112    3.75017   66 5192    6.00000    3.75017  37.5%  2168 2831s
  1283  1113    3.75034  369 5345    6.00000    3.75034  37.5%  2167 2844s
  1284  1114    4.00000  386 5331    6.00000    3.75035  37.5%  2165 2848s
  1285  1114    3.75050  146 5270    6.00000    3.75050  37.5%  2163 2866s
  1287  1116    5.00000    5 5110    6.00000    3.75087  37.5%  2160 2885s
  1289  1117    3.75112  227 5422    6.00000    3.75112  37.5%  2157 2899s
  1290  1118    3.75112   37 5424    6.00000    3.75112  37.5%  2155 2902s
  1291  1118    3.75125  213 5303    6.00000    3.75125  37.5%  2153 2911s
  1293  1120    3.75139  126 5290    6.00000    3.75139  37.5%  2150 2922s
  1294  1120    3.75143  195 5285    6.00000    3.75143  37.5%  2148 2925s
  1295  1121    3.75152  307 5380    6.00000    3.75152  37.5%  2147 2936s
  1297  1122    3.75163  375 5340    6.00000    3.75163  37.5%  2143 2947s
  1298  1123    3.75164  361 5307    6.00000    3.75164  37.5%  2142 2950s
  1299  1124    3.75173  109 5251    6.00000    3.75173  37.5%  2140 2960s
  1301  1125    3.75181  361 5206    6.00000    3.75181  37.5%  2137 2972s
  1302  1126    3.75183   86 5249    6.00000    3.75183  37.5%  2135 2975s
  1303  1126    3.75195  213 5416    6.00000    3.75195  37.5%  2133 2991s
  1304  1127    3.75203   36 5418    6.00000    3.75203  37.5%  2132 3001s
  1305  1128    3.75208  207 5277    6.00000    3.75208  37.5%  2130 3012s
  1306  1128    3.75208  137 5277    6.00000    3.75208  37.5%  2128 3017s
  1308  1131    3.75208  279    1    6.00000    3.75208  37.5%  2535 3021s
  1310  1132    3.75208   56 6842    6.00000    3.75208  37.5%  2531 3053s
  1311  1133    3.75208   69 3892    6.00000    3.75208  37.5%  2530 3064s
  1312  1134    3.75208  130 4234    6.00000    3.75208  37.5%  2528 3077s
  1313  1134    3.75208  173 5310    6.00000    3.75208  37.5%  2526 3087s
  1314  1135    3.75208  330 5237    6.00000    3.75208  37.5%  2524 3095s
  1315  1136    3.75208  295 4518    6.00000    3.75208  37.5%  2522 3110s
  1316  1136    3.75208  182 4076    6.00000    3.75208  37.5%  2520 3116s
  1317  1137    3.75208  135 4899    6.00000    3.75208  37.5%  2518 3131s
  1318  1138    3.75208  381 4939    6.00000    3.75208  37.5%  2516 3139s
  1319  1138    3.75208  187 5319    6.00000    3.75208  37.5%  2514 3152s
  1320  1139    3.75208   62 5348    6.00000    3.75208  37.5%  2512 3160s
  1321  1140    3.75214  187 5362    6.00000    3.75214  37.5%  2510 3186s
  1322  1140    3.75217  128 5289    6.00000    3.75217  37.5%  2508 3200s
  1323  1141    3.75226  197 5379    6.00000    3.75226  37.5%  2507 3216s
  1324  1142    3.75233  314 5132    6.00000    3.75233  37.5%  2505 3232s
  1325  1142    3.75236   20 5401    6.00000    3.75236  37.5%  2503 3243s
  1326  1143    3.75236   70 5401    6.00000    3.75236  37.5%  2501 3250s
  1330  1147    3.75236    5 6842    6.00000    3.75236  37.5%  2668 3285s
  1331  1148    3.75236  361 3858    6.00000    3.75236  37.5%  2666 3296s
  1332  1149    3.75236  100 4225    6.00000    3.75236  37.5%  2664 3317s
  1333  1149    3.75236  294 5426    6.00000    3.75236  37.5%  2662 3328s
  1334  1150    3.75236  282 5265    6.00000    3.75236  37.5%  2660 3336s
  1335  1151    3.75236  312 4465    6.00000    3.75236  37.5%  2658 3354s
  1336  1151    3.75236   45 4600    6.00000    3.75236  37.5%  2656 3365s
  1337  1152    3.75236   82 5152    6.00000    3.75236  37.5%  2654 3382s
  1338  1153    3.75236  245 5179    6.00000    3.75236  37.5%  2652 3391s
  1339  1153    3.75236  111 5072    6.00000    3.75236  37.5%  2650 3406s
  1340  1154    3.75236  154 5445    6.00000    3.75236  37.5%  2648 3415s
  1341  1155    3.75239  235 5223    6.00000    3.75239  37.5%  2646 3427s
  1342  1155    3.75240  296 5493    6.00000    3.75240  37.5%  2644 3432s
  1343  1156    3.75245  192 5201    6.00000    3.75245  37.5%  2642 3457s
  1344  1157    4.00000  396 5452    6.00000    3.75245  37.5%  2640 3462s
  1345  1157    3.75250  101 5264    6.00000    3.75250  37.5%  2639 3477s
  1346  1158    3.75250  230 5264    6.00000    3.75250  37.5%  2637 3485s
  1347  1159    3.75250  268 5264    6.00000    3.75250  37.5%  2635 3497s
  1348  1162    3.76159  151 5361    6.00000    3.76159  37.3%  2842 3562s
  1350  1164    4.16486  152 5805    6.00000    3.76160  37.3%  2890 3588s

Cutting planes:
  Gomory: 9
  MIR: 1
  Mod-K: 135

Explored 1352 nodes (3910708 simplex iterations) in 3600.01 seconds
Thread count was 4 (of 4 available processors)

Solution count 6: 6 8 9 ... 546

Time limit reached
Best objective 6.000000000000e+00, best bound 4.000000000000e+00, gap 33.3333%
Warning: Q constraint 0 doesn't have a name
